p tw 299 4053
1 2
1 4
1 5
1 6
1 7
1 8
1 9
1 12
1 16
1 32
2 3
2 4
2 5
2 6
2 7
2 10
2 13
2 18
2 23
2 29
3 4
3 5
3 6
3 7
3 11
3 12
3 17
3 30
3 32
4 5
4 6
4 7
4 12
4 13
4 14
4 19
4 31
5 6
5 7
5 19
5 20
5 21
5 22
5 27
5 28
5 31
6 7
6 22
6 23
6 26
6 28
6 32
7 14
7 15
7 22
7 24
7 25
7 26
7 31
8 9
8 10
8 12
8 13
8 14
8 16
8 17
8 18
8 19
8 21
8 22
8 23
8 24
8 26
8 28
8 29
8 30
8 31
8 32
8 33
8 35
8 40
8 44
8 67
9 10
9 11
9 12
9 13
9 14
9 16
9 19
9 21
9 24
9 29
9 30
9 31
9 33
9 34
9 35
9 40
9 41
9 63
9 65
10 11
10 12
10 13
10 14
10 16
10 17
10 18
10 19
10 21
10 22
10 23
10 24
10 26
10 28
10 29
10 30
10 31
10 32
10 37
10 41
10 46
10 52
10 59
11 12
11 13
11 14
11 16
11 17
11 18
11 19
11 21
11 22
11 23
11 24
11 26
11 28
11 29
11 30
11 31
11 32
11 38
11 40
11 45
11 60
11 67
12 13
12 14
12 15
12 19
12 20
12 21
12 22
12 23
12 24
12 25
12 26
12 27
12 28
12 29
12 30
12 31
12 32
12 40
12 41
12 42
12 47
12 65
13 14
13 15
13 19
13 20
13 21
13 22
13 23
13 24
13 25
13 26
13 27
13 28
13 29
13 30
13 31
13 32
13 40
13 41
13 42
13 47
13 65
14 15
14 19
14 21
14 22
14 23
14 24
14 25
14 26
14 29
14 30
14 31
14 32
14 40
14 41
14 42
14 53
14 54
14 64
14 65
14 69
15 22
15 23
15 24
15 25
15 26
15 31
15 32
15 43
15 53
15 54
16 17
16 18
16 21
16 22
16 23
16 24
16 26
16 28
16 32
16 33
16 34
16 44
16 51
16 52
16 63
16 67
17 18
17 21
17 22
17 23
17 24
17 26
17 28
17 30
17 32
17 36
17 38
17 45
17 51
17 52
17 61
17 67
18 21
18 22
18 23
18 24
18 26
18 28
18 29
18 32
18 37
18 39
18 46
18 51
18 52
18 62
18 67
19 20
19 21
19 22
19 23
19 24
19 27
19 28
19 29
19 30
19 31
19 32
19 40
19 41
19 47
19 49
19 50
19 64
19 65
19 68
20 21
20 22
20 23
20 27
20 28
20 31
20 32
20 48
20 49
20 50
21 22
21 23
21 24
21 26
21 27
21 28
21 29
21 30
21 31
21 32
21 47
21 48
21 50
21 51
21 57
21 58
21 65
22 23
22 24
22 25
22 26
22 27
22 28
22 31
22 32
22 51
22 52
22 56
22 58
22 67
23 24
23 25
23 26
23 27
23 28
23 31
23 32
23 51
23 52
23 56
23 58
23 67
24 25
24 26
24 28
24 29
24 30
24 31
24 32
24 42
24 43
24 51
24 54
24 55
24 56
24 65
25 26
25 31
25 32
25 54
25 55
25 69
26 28
26 31
26 32
26 51
26 52
26 53
26 54
26 56
26 66
26 67
26 69
27 28
27 31
27 32
27 50
27 57
27 68
28 31
28 32
28 49
28 50
28 51
28 52
28 58
28 66
28 67
28 68
29 30
29 31
29 37
29 39
29 40
29 41
29 59
29 62
29 65
30 31
30 36
30 38
30 40
30 41
30 60
30 61
30 65
31 32
31 40
31 41
31 42
31 47
31 65
32 51
32 52
32 56
32 58
32 67
33 34
33 35
33 36
33 37
33 40
33 41
33 42
33 44
33 45
33 46
33 47
33 49
33 50
33 51
33 52
33 53
33 54
33 56
33 58
33 59
33 60
33 61
33 62
33 63
33 64
33 65
33 66
33 67
33 82
33 84
33 89
33 93
33 118
34 35
34 36
34 37
34 38
34 39
34 40
34 41
34 42
34 44
34 45
34 46
34 47
34 49
34 51
34 52
34 53
34 56
34 58
34 59
34 60
34 63
34 64
34 65
34 66
34 67
34 68
34 69
34 83
34 84
34 93
34 100
34 116
35 36
35 37
35 38
35 39
35 40
35 41
35 42
35 44
35 47
35 49
35 50
35 53
35 54
35 59
35 60
35 61
35 62
35 63
35 64
35 65
35 68
35 69
35 82
35 83
35 84
35 89
35 90
35 114
35 116
36 38
36 39
36 40
36 41
36 42
36 44
36 45
36 46
36 47
36 50
36 51
36 52
36 54
36 56
36 58
36 59
36 60
36 61
36 62
36 64
36 65
36 66
36 67
36 68
36 69
36 85
36 90
36 94
36 101
36 111
37 38
37 39
37 40
37 41
37 42
37 44
37 45
37 46
37 47
37 50
37 51
37 52
37 54
37 56
37 58
37 59
37 60
37 61
37 62
37 64
37 65
37 66
37 67
37 68
37 69
37 86
37 90
37 95
37 101
37 110
38 40
38 41
38 42
38 44
38 45
38 46
38 47
38 49
38 50
38 51
38 52
38 53
38 54
38 56
38 58
38 59
38 60
38 61
38 62
38 63
38 64
38 65
38 66
38 67
38 70
38 71
38 87
38 89
38 94
38 111
38 118
39 40
39 41
39 42
39 44
39 45
39 46
39 47
39 49
39 50
39 51
39 52
39 53
39 54
39 56
39 58
39 59
39 60
39 61
39 62
39 63
39 64
39 65
39 66
39 67
39 70
39 71
39 88
39 89
39 95
39 110
39 118
40 41
40 42
40 43
40 47
40 48
40 49
40 50
40 51
40 52
40 53
40 54
40 55
40 56
40 57
40 58
40 59
40 60
40 61
40 62
40 63
40 64
40 65
40 66
40 67
40 68
40 69
40 70
40 71
40 72
40 73
40 74
40 89
40 90
40 91
40 96
40 116
41 42
41 43
41 47
41 48
41 49
41 50
41 51
41 52
41 53
41 54
41 55
41 56
41 57
41 58
41 59
41 60
41 61
41 62
41 63
41 64
41 65
41 66
41 67
41 68
41 69
41 70
41 71
41 72
41 73
41 74
41 75
41 89
41 90
41 91
41 96
41 116
42 43
42 47
42 49
42 50
42 51
42 52
42 53
42 54
42 55
42 56
42 59
42 60
42 61
42 62
42 63
42 64
42 65
42 66
42 67
42 68
42 69
42 70
42 71
42 72
42 73
42 74
42 75
42 89
42 90
42 91
42 102
42 103
42 115
42 116
42 120
43 51
43 52
43 53
43 54
43 55
43 56
43 64
43 65
43 66
43 67
43 69
43 71
43 73
43 75
43 92
43 102
43 103
44 45
44 46
44 49
44 50
44 51
44 52
44 53
44 54
44 56
44 58
44 61
44 62
44 63
44 66
44 67
44 68
44 69
44 82
44 83
44 93
44 100
44 101
44 114
44 118
45 46
45 49
45 50
45 51
45 52
45 53
45 54
45 56
45 58
45 60
45 61
45 62
45 63
45 66
45 67
45 68
45 69
45 76
45 77
45 85
45 87
45 94
45 100
45 101
45 112
45 118
46 49
46 50
46 51
46 52
46 53
46 54
46 56
46 58
46 59
46 61
46 62
46 63
46 66
46 67
46 68
46 69
46 76
46 77
46 86
46 88
46 95
46 100
46 101
46 113
46 118
47 48
47 49
47 50
47 51
47 52
47 53
47 54
47 57
47 58
47 59
47 60
47 61
47 62
47 63
47 64
47 65
47 66
47 67
47 68
47 69
47 70
47 71
47 72
47 73
47 74
47 75
47 76
47 78
47 89
47 90
47 96
47 98
47 99
47 115
47 116
47 119
48 49
48 50
48 51
48 52
48 57
48 58
48 64
48 65
48 66
48 67
48 68
48 70
48 72
48 74
48 76
48 78
48 97
48 98
48 99
49 50
49 51
49 52
49 56
49 57
49 58
49 59
49 60
49 61
49 62
49 64
49 65
49 66
49 67
49 68
49 70
49 72
49 74
49 76
49 78
49 80
49 97
49 98
49 108
50 51
50 52
50 56
50 57
50 58
50 59
50 60
50 63
50 64
50 65
50 66
50 67
50 68
50 70
50 71
50 72
50 73
50 74
50 76
50 77
50 78
50 80
50 97
50 99
50 107
51 52
51 53
51 54
51 55
51 56
51 57
51 58
51 61
51 62
51 63
51 65
51 66
51 67
51 68
51 69
51 70
51 71
51 72
51 73
51 74
51 75
51 76
51 77
51 78
51 79
51 80
51 100
51 101
51 106
51 109
51 118
52 53
52 54
52 55
52 56
52 57
52 58
52 61
52 62
52 63
52 65
52 66
52 67
52 68
52 69
52 70
52 71
52 72
52 73
52 74
52 75
52 76
52 77
52 78
52 79
52 80
52 100
52 101
52 106
52 109
52 118
53 54
53 55
53 56
53 58
53 59
53 60
53 61
53 62
53 64
53 65
53 66
53 67
53 69
53 70
53 71
53 73
53 75
53 76
53 77
53 79
53 81
53 92
53 102
53 105
54 55
54 56
54 58
54 59
54 60
54 63
54 64
54 65
54 66
54 67
54 69
54 70
54 71
54 72
54 73
54 74
54 75
54 76
54 77
54 78
54 79
54 81
54 92
54 103
54 104
55 56
55 65
55 66
55 67
55 69
55 71
55 73
55 75
55 77
55 79
55 81
55 103
55 104
55 120
56 58
56 61
56 62
56 63
56 64
56 65
56 66
56 67
56 68
56 69
56 71
56 73
56 75
56 76
56 77
56 78
56 79
56 80
56 81
56 100
56 101
56 102
56 103
56 106
56 117
56 118
56 120
57 58
57 65
57 66
57 67
57 68
57 70
57 72
57 74
57 76
57 78
57 80
57 99
57 107
57 119
58 61
58 62
58 63
58 64
58 65
58 66
58 67
58 68
58 69
58 70
58 72
58 74
58 76
58 77
58 78
58 79
58 80
58 81
58 98
58 99
58 100
58 101
58 109
58 117
58 118
58 119
59 60
59 61
59 62
59 63
59 64
59 65
59 68
59 69
59 70
59 71
59 72
59 73
59 86
59 88
59 89
59 90
59 110
59 113
59 116
60 61
60 62
60 63
60 64
60 65
60 68
60 69
60 70
60 71
60 72
60 73
60 85
60 87
60 89
60 90
60 111
60 112
60 116
61 63
61 65
61 66
61 67
61 68
61 69
61 70
61 71
61 72
61 73
61 94
61 100
61 111
61 112
61 116
62 63
62 65
62 66
62 67
62 68
62 69
62 70
62 71
62 72
62 73
62 95
62 100
62 110
62 113
62 116
63 64
63 65
63 66
63 67
63 68
63 69
63 84
63 90
63 93
63 101
63 114
64 65
64 70
64 71
64 72
64 73
64 74
64 75
64 115
65 66
65 67
65 68
65 69
65 70
65 71
65 72
65 73
65 89
65 90
65 91
65 96
65 116
66 67
66 70
66 71
66 72
66 73
66 74
66 75
66 76
66 77
66 78
66 79
66 80
66 81
66 117
67 68
67 69
67 70
67 71
67 72
67 73
67 74
67 75
67 76
67 77
67 78
67 79
67 100
67 101
67 106
67 109
67 118
68 70
68 71
68 72
68 74
68 76
68 77
68 78
68 79
68 80
68 107
68 108
68 119
69 70
69 71
69 72
69 73
69 75
69 76
69 77
69 78
69 79
69 80
69 81
69 104
69 105
69 120
70 90
70 96
71 90
71 91
72 89
72 96
73 89
73 91
74 96
74 116
75 91
75 116
76 101
76 109
77 101
77 106
78 100
78 109
79 100
79 106
80 109
80 118
81 106
81 118
82 83
82 84
82 85
82 86
82 87
82 88
82 93
82 94
82 95
82 98
82 99
82 100
82 101
82 102
82 103
82 106
82 109
82 112
82 113
82 114
82 117
82 118
82 133
82 144
82 169
83 84
83 85
83 86
83 87
83 88
83 93
83 94
83 95
83 98
83 100
83 101
83 102
83 106
83 109
83 114
83 117
83 118
83 119
83 120
83 134
83 144
83 151
84 85
84 86
84 87
84 88
84 89
84 90
84 91
84 93
84 94
84 95
84 96
84 98
84 99
84 100
84 101
84 102
84 103
84 106
84 109
84 110
84 111
84 112
84 113
84 114
84 115
84 116
84 117
84 118
84 119
84 120
84 133
84 134
84 135
84 140
84 141
84 165
84 167
85 87
85 88
85 89
85 90
85 91
85 93
85 94
85 95
85 96
85 99
85 100
85 101
85 103
85 106
85 109
85 110
85 111
85 112
85 113
85 115
85 116
85 117
85 118
85 119
85 120
85 136
85 141
85 145
85 152
85 162
86 87
86 88
86 89
86 90
86 91
86 93
86 94
86 95
86 96
86 99
86 100
86 101
86 103
86 106
86 109
86 110
86 111
86 112
86 113
86 115
86 116
86 117
86 118
86 119
86 120
86 137
86 141
86 146
86 152
86 161
87 89
87 90
87 91
87 93
87 94
87 95
87 96
87 98
87 99
87 100
87 101
87 102
87 103
87 106
87 109
87 110
87 111
87 112
87 113
87 114
87 115
87 116
87 117
87 118
87 121
87 122
87 138
87 140
87 145
87 162
87 169
88 89
88 90
88 91
88 93
88 94
88 95
88 96
88 98
88 99
88 100
88 101
88 102
88 103
88 106
88 109
88 110
88 111
88 112
88 113
88 114
88 115
88 116
88 117
88 118
88 121
88 122
88 139
88 140
88 146
88 161
88 169
89 90
89 91
89 92
89 96
89 97
89 98
89 99
89 100
89 101
89 102
89 103
89 104
89 105
89 106
89 107
89 108
89 109
89 110
89 111
89 112
89 113
89 114
89 115
89 116
89 117
89 118
89 119
89 120
89 121
89 122
89 123
89 124
89 125
89 140
89 141
89 142
89 147
89 167
90 91
90 92
90 96
90 97
90 98
90 99
90 100
90 101
90 102
90 103
90 104
90 105
90 106
90 107
90 108
90 109
90 110
90 111
90 112
90 113
90 114
90 115
90 116
90 117
90 118
90 119
90 120
90 121
90 122
90 123
90 124
90 125
90 126
90 140
90 141
90 142
90 147
90 167
91 92
91 96
91 98
91 99
91 100
91 101
91 102
91 103
91 104
91 105
91 106
91 110
91 111
91 112
91 113
91 114
91 115
91 116
91 117
91 118
91 119
91 120
91 121
91 122
91 123
91 124
91 125
91 126
91 140
91 141
91 142
91 153
91 154
91 166
91 167
91 171
92 100
92 101
92 102
92 103
92 104
92 105
92 106
92 115
92 116
92 117
92 118
92 120
92 122
92 124
92 126
92 143
92 153
92 154
93 94
93 95
93 98
93 99
93 100
93 101
93 102
93 103
93 106
93 109
93 112
93 113
93 114
93 117
93 118
93 119
93 120
93 133
93 134
93 144
93 151
93 152
93 165
93 169
94 95
94 98
94 99
94 100
94 101
94 102
94 103
94 106
94 109
94 111
94 112
94 113
94 114
94 117
94 118
94 119
94 120
94 127
94 128
94 136
94 138
94 145
94 151
94 152
94 163
94 169
95 98
95 99
95 100
95 101
95 102
95 103
95 106
95 109
95 110
95 112
95 113
95 114
95 117
95 118
95 119
95 120
95 127
95 128
95 137
95 139
95 146
95 151
95 152
95 164
95 169
96 97
96 98
96 99
96 100
96 101
96 102
96 103
96 107
96 108
96 109
96 110
96 111
96 112
96 113
96 114
96 115
96 116
96 117
96 118
96 119
96 120
96 121
96 122
96 123
96 124
96 125
96 126
96 127
96 129
96 140
96 141
96 147
96 149
96 150
96 166
96 167
96 170
97 98
97 99
97 100
97 101
97 107
97 108
97 109
97 115
97 116
97 117
97 118
97 119
97 121
97 123
97 125
97 127
97 129
97 148
97 149
97 150
98 99
98 100
98 101
98 106
98 107
98 108
98 109
98 110
98 111
98 112
98 113
98 115
98 116
98 117
98 118
98 119
98 121
98 123
98 125
98 127
98 129
98 131
98 148
98 149
98 159
99 100
99 101
99 106
99 107
99 108
99 109
99 110
99 111
99 114
99 115
99 116
99 117
99 118
99 119
99 121
99 122
99 123
99 124
99 125
99 127
99 128
99 129
99 131
99 148
99 150
99 158
100 101
100 102
100 103
100 104
100 105
100 106
100 107
100 108
100 109
100 112
100 113
100 114
100 116
100 117
100 118
100 119
100 120
100 121
100 122
100 123
100 124
100 125
100 126
100 127
100 128
100 129
100 130
100 131
100 151
100 152
100 157
100 160
100 169
101 102
101 103
101 104
101 105
101 106
101 107
101 108
101 109
101 112
101 113
101 114
101 116
101 117
101 118
101 119
101 120
101 121
101 122
101 123
101 124
101 125
101 126
101 127
101 128
101 129
101 130
101 131
101 151
101 152
101 157
101 160
101 169
102 103
102 104
102 105
102 106
102 109
102 110
102 111
102 112
102 113
102 115
102 116
102 117
102 118
102 120
102 121
102 122
102 124
102 126
102 127
102 128
102 130
102 132
102 143
102 153
102 156
103 104
103 105
103 106
103 109
103 110
103 111
103 114
103 115
103 116
103 117
103 118
103 120
103 121
103 122
103 123
103 124
103 125
103 126
103 127
103 128
103 129
103 130
103 132
103 143
103 154
103 155
104 105
104 106
104 116
104 117
104 118
104 120
104 122
104 124
104 126
104 128
104 130
104 132
104 154
104 155
104 171
105 106
105 116
105 117
105 118
105 120
105 122
105 124
105 126
105 128
105 130
105 132
105 153
105 156
105 171
106 109
106 112
106 113
106 114
106 115
106 116
106 117
106 118
106 119
106 120
106 122
106 124
106 126
106 127
106 128
106 129
106 130
106 131
106 132
106 151
106 152
106 153
106 154
106 157
106 168
106 169
106 171
107 108
107 109
107 116
107 117
107 118
107 119
107 121
107 123
107 125
107 127
107 129
107 131
107 150
107 158
107 170
108 109
108 116
108 117
108 118
108 119
108 121
108 123
108 125
108 127
108 129
108 131
108 149
108 159
108 170
109 112
109 113
109 114
109 115
109 116
109 117
109 118
109 119
109 120
109 121
109 123
109 125
109 127
109 128
109 129
109 130
109 131
109 132
109 149
109 150
109 151
109 152
109 160
109 168
109 169
109 170
110 111
110 112
110 113
110 114
110 115
110 116
110 119
110 120
110 121
110 122
110 123
110 124
110 137
110 139
110 140
110 141
110 161
110 164
110 167
111 112
111 113
111 114
111 115
111 116
111 119
111 120
111 121
111 122
111 123
111 124
111 136
111 138
111 140
111 141
111 162
111 163
111 167
112 114
112 116
112 117
112 118
112 119
112 120
112 121
112 122
112 123
112 124
112 145
112 151
112 162
112 163
112 167
113 114
113 116
113 117
113 118
113 119
113 120
113 121
113 122
113 123
113 124
113 146
113 151
113 161
113 164
113 167
114 115
114 116
114 117
114 118
114 119
114 120
114 135
114 141
114 144
114 152
114 165
115 116
115 121
115 122
115 123
115 124
115 125
115 126
115 166
116 117
116 118
116 119
116 120
116 121
116 122
116 123
116 124
116 140
116 141
116 142
116 147
116 167
117 118
117 121
117 122
117 123
117 124
117 125
117 126
117 127
117 128
117 129
117 130
117 131
117 132
117 168
118 119
118 120
118 121
118 122
118 123
118 124
118 125
118 126
118 127
118 128
118 129
118 130
118 151
118 152
118 157
118 160
118 169
119 121
119 122
119 123
119 125
119 127
119 128
119 129
119 130
119 131
119 158
119 159
119 170
120 121
120 122
120 123
120 124
120 126
120 127
120 128
120 129
120 130
120 131
120 132
120 155
120 156
120 171
121 141
121 147
122 141
122 142
123 140
123 147
124 140
124 142
125 147
125 167
126 142
126 167
127 152
127 160
128 152
128 157
129 151
129 160
130 151
130 157
131 160
131 169
132 157
132 169
133 134
133 135
133 136
133 137
133 138
133 139
133 144
133 145
133 146
133 149
133 150
133 151
133 152
133 153
133 154
133 157
133 160
133 163
133 164
133 165
133 168
133 169
133 188
133 213
134 135
134 136
134 137
134 138
134 139
134 144
134 145
134 146
134 149
134 151
134 152
134 153
134 157
134 160
134 163
134 164
134 165
134 168
134 169
134 170
134 171
134 188
134 195
135 138
135 139
135 140
135 141
135 142
135 144
135 147
135 150
135 154
135 161
135 162
135 163
135 164
135 165
135 166
135 167
135 170
135 171
135 185
135 209
136 138
136 139
136 140
136 141
136 142
136 144
136 145
136 146
136 147
136 150
136 151
136 152
136 154
136 157
136 160
136 161
136 162
136 163
136 164
136 165
136 166
136 167
136 168
136 169
136 170
136 171
136 185
136 189
136 196
136 206
137 138
137 139
137 140
137 141
137 142
137 144
137 145
137 146
137 147
137 150
137 151
137 152
137 154
137 157
137 160
137 161
137 162
137 163
137 164
137 165
137 166
137 167
137 168
137 169
137 170
137 171
137 185
137 190
137 196
137 205
138 140
138 141
138 142
138 144
138 145
138 146
138 147
138 149
138 150
138 151
138 152
138 153
138 154
138 157
138 160
138 161
138 162
138 163
138 164
138 165
138 166
138 167
138 168
138 169
138 172
138 173
138 184
138 189
138 206
138 213
139 140
139 141
139 142
139 144
139 145
139 146
139 147
139 149
139 150
139 151
139 152
139 153
139 154
139 157
139 160
139 161
139 162
139 163
139 164
139 165
139 166
139 167
139 168
139 169
139 172
139 173
139 184
139 190
139 205
139 213
140 141
140 142
140 143
140 147
140 148
140 149
140 150
140 151
140 152
140 153
140 154
140 155
140 156
140 157
140 158
140 159
140 160
140 161
140 162
140 163
140 164
140 166
140 167
140 168
140 169
140 170
140 171
140 172
140 173
140 174
140 175
140 176
140 184
140 185
140 186
140 191
140 211
141 142
141 143
141 147
141 148
141 149
141 150
141 151
141 152
141 153
141 154
141 155
141 156
141 157
141 158
141 159
141 160
141 161
141 162
141 163
141 164
141 166
141 167
141 168
141 169
141 170
141 171
141 172
141 173
141 174
141 175
141 176
141 177
141 184
141 185
141 186
141 191
141 211
142 143
142 147
142 151
142 152
142 153
142 154
142 155
142 156
142 157
142 166
142 167
142 168
142 169
142 171
142 172
142 173
142 174
142 175
142 176
142 177
142 186
142 198
142 210
142 211
143 151
143 152
143 153
143 154
143 155
143 156
143 157
143 166
143 167
143 168
143 169
143 171
143 173
143 175
143 177
143 187
143 197
143 198
144 145
144 146
144 150
144 151
144 152
144 154
144 157
144 160
144 163
144 164
144 165
144 168
144 169
144 170
144 171
144 188
144 196
144 209
145 151
145 152
145 157
145 160
145 162
145 163
145 165
145 168
145 169
145 170
145 171
145 178
145 179
145 189
145 195
145 207
146 151
146 152
146 157
146 160
146 161
146 164
146 165
146 168
146 169
146 170
146 171
146 178
146 179
146 190
146 195
146 208
147 148
147 149
147 150
147 151
147 152
147 154
147 158
147 159
147 160
147 166
147 167
147 168
147 169
147 170
147 172
147 173
147 174
147 175
147 176
147 177
147 178
147 180
147 191
147 194
147 210
147 211
148 149
148 150
148 151
148 152
148 158
148 159
148 160
148 166
148 167
148 168
148 169
148 170
148 172
148 174
148 176
148 178
148 180
148 192
148 193
148 194
149 150
149 151
149 152
149 157
149 158
149 159
149 160
149 163
149 164
149 166
149 167
149 168
149 169
149 170
149 172
149 174
149 176
149 178
149 180
149 182
149 192
149 193
149 203
150 151
150 152
150 157
150 158
150 159
150 160
150 165
150 166
150 167
150 168
150 169
150 170
150 172
150 173
150 174
150 175
150 176
150 178
150 179
150 180
150 182
150 192
150 194
150 202
151 152
151 153
151 154
151 155
151 156
151 157
151 158
151 159
151 160
151 163
151 164
151 165
151 167
151 168
151 169
151 170
151 171
151 172
151 173
151 174
151 175
151 176
151 177
151 178
151 179
151 180
151 181
151 182
151 195
151 196
151 201
151 204
151 213
152 153
152 154
152 155
152 156
152 157
152 158
152 159
152 160
152 163
152 164
152 165
152 167
152 168
152 169
152 170
152 171
152 172
152 173
152 174
152 175
152 176
152 177
152 178
152 179
152 180
152 181
152 182
152 195
152 196
152 201
152 204
152 213
153 154
153 155
153 156
153 157
153 160
153 163
153 164
153 166
153 167
153 168
153 169
153 171
153 172
153 173
153 175
153 177
153 178
153 179
153 181
153 183
153 187
153 197
153 200
154 155
154 156
154 157
154 160
154 165
154 166
154 167
154 168
154 169
154 171
154 172
154 173
154 174
154 175
154 176
154 177
154 178
154 179
154 180
154 181
154 183
154 187
154 198
154 199
155 156
155 157
155 167
155 168
155 169
155 171
155 173
155 175
155 177
155 179
155 181
155 183
155 198
155 199
155 215
156 157
156 167
156 168
156 169
156 171
156 173
156 175
156 177
156 179
156 181
156 183
156 197
156 200
156 215
157 160
157 163
157 164
157 165
157 166
157 167
157 168
157 169
157 170
157 171
157 173
157 175
157 177
157 178
157 179
157 180
157 181
157 182
157 183
157 195
157 196
157 197
157 198
157 201
157 212
157 213
157 215
158 159
158 160
158 167
158 168
158 169
158 170
158 172
158 174
158 176
158 178
158 180
158 182
158 194
158 202
158 214
159 160
159 167
159 168
159 169
159 170
159 172
159 174
159 176
159 178
159 180
159 182
159 193
159 203
159 214
160 163
160 164
160 165
160 166
160 167
160 168
160 169
160 170
160 171
160 172
160 174
160 176
160 178
160 179
160 180
160 181
160 182
160 183
160 193
160 194
160 195
160 196
160 204
160 212
160 213
160 214
161 164
161 167
161 172
161 173
161 174
161 175
161 205
161 208
161 211
162 163
162 167
162 172
162 173
162 174
162 175
162 206
162 207
162 211
163 165
163 167
163 168
163 169
163 170
163 171
163 172
163 173
163 174
163 175
163 189
163 195
163 206
163 207
163 211
164 165
164 167
164 168
164 169
164 170
164 171
164 172
164 173
164 174
164 175
164 190
164 195
164 205
164 208
164 211
165 168
165 169
165 170
165 171
165 188
165 196
165 209
166 167
166 172
166 173
166 174
166 175
166 176
166 177
166 210
167 168
167 169
167 170
167 171
167 172
167 173
167 174
167 175
167 184
167 185
167 186
167 191
167 211
168 169
168 172
168 173
168 174
168 175
168 176
168 177
168 178
168 179
168 180
168 181
168 182
168 183
168 212
169 170
169 171
169 172
169 173
169 174
169 175
169 176
169 177
169 178
169 179
169 180
169 181
169 195
169 196
169 201
169 204
169 213
170 172
170 173
170 174
170 176
170 178
170 179
170 180
170 181
170 182
170 202
170 203
170 214
171 172
171 173
171 174
171 175
171 177
171 178
171 179
171 180
171 181
171 182
171 183
171 199
171 200
171 215
172 185
172 191
173 185
173 186
174 184
174 191
175 184
175 186
176 191
176 211
177 186
177 211
178 196
178 204
179 196
179 201
180 195
180 204
181 195
181 201
182 204
182 213
183 201
183 213
184 185
184 186
184 187
184 191
184 192
184 193
184 194
184 195
184 196
184 197
184 198
184 199
184 200
184 201
184 202
184 203
184 204
184 205
184 206
184 207
184 208
184 210
184 211
184 212
184 213
184 214
184 215
184 216
184 224
184 229
184 249
185 186
185 187
185 191
185 192
185 193
185 194
185 195
185 196
185 197
185 198
185 199
185 200
185 201
185 202
185 203
185 204
185 205
185 206
185 207
185 208
185 210
185 211
185 212
185 213
185 214
185 215
185 216
185 217
185 224
185 229
185 249
186 187
186 191
186 195
186 196
186 197
186 198
186 199
186 200
186 201
186 210
186 212
186 213
186 215
186 216
186 217
186 224
186 236
186 248
186 249
187 195
187 196
187 197
187 198
187 199
187 200
187 201
187 210
187 212
187 213
187 215
187 217
187 225
187 235
187 236
188 189
188 190
188 194
188 195
188 196
188 198
188 201
188 204
188 207
188 208
188 209
188 212
188 213
188 214
188 215
188 226
188 234
188 247
189 193
189 195
189 196
189 197
189 201
189 204
189 206
189 207
189 209
189 212
189 213
189 214
189 215
189 218
189 219
189 227
189 233
189 245
190 193
190 195
190 196
190 197
190 201
190 204
190 205
190 208
190 209
190 212
190 213
190 214
190 215
190 218
190 219
190 228
190 233
190 246
191 192
191 193
191 194
191 195
191 196
191 198
191 202
191 203
191 204
191 210
191 212
191 213
191 214
191 216
191 217
191 218
191 220
191 229
191 232
191 248
191 249
192 193
192 194
192 195
192 196
192 202
192 203
192 204
192 210
192 212
192 213
192 214
192 216
192 218
192 220
192 230
192 231
192 232
193 194
193 195
193 196
193 201
193 202
193 203
193 204
193 207
193 208
193 210
193 212
193 213
193 214
193 216
193 218
193 220
193 222
193 230
193 231
193 241
194 195
194 196
194 201
194 202
194 203
194 204
194 209
194 210
194 212
194 213
194 214
194 216
194 218
194 219
194 220
194 222
194 230
194 232
194 240
195 196
195 197
195 198
195 199
195 200
195 201
195 202
195 203
195 204
195 207
195 208
195 209
195 212
195 213
195 214
195 215
195 216
195 217
195 218
195 219
195 220
195 221
195 222
195 233
195 234
195 239
195 242
195 251
196 197
196 198
196 199
196 200
196 201
196 202
196 203
196 204
196 207
196 208
196 209
196 212
196 213
196 214
196 215
196 216
196 217
196 218
196 219
196 220
196 221
196 222
196 233
196 234
196 239
196 242
196 251
197 198
197 199
197 200
197 201
197 204
197 207
197 208
197 210
197 212
197 213
197 215
197 217
197 218
197 219
197 221
197 223
197 225
197 235
197 238
198 199
198 200
198 201
198 204
198 209
198 210
198 212
198 213
198 215
198 216
198 217
198 218
198 219
198 220
198 221
198 223
198 225
198 236
198 237
199 200
199 201
199 212
199 213
199 215
199 217
199 219
199 221
199 223
199 236
199 237
199 253
200 201
200 212
200 213
200 215
200 217
200 219
200 221
200 223
200 235
200 238
200 253
201 204
201 207
201 208
201 209
201 210
201 212
201 213
201 214
201 215
201 217
201 218
201 219
201 220
201 221
201 222
201 223
201 233
201 234
201 235
201 236
201 239
201 250
201 251
201 253
202 203
202 204
202 212
202 213
202 214
202 216
202 218
202 220
202 222
202 232
202 240
202 252
203 204
203 212
203 213
203 214
203 216
203 218
203 220
203 222
203 231
203 241
203 252
204 207
204 208
204 209
204 210
204 212
204 213
204 214
204 215
204 216
204 218
204 219
204 220
204 221
204 222
204 223
204 231
204 232
204 233
204 234
204 242
204 250
204 251
204 252
205 208
205 243
205 246
205 249
206 207
206 244
206 245
206 249
207 209
207 212
207 213
207 214
207 215
207 227
207 233
207 244
207 245
207 249
208 209
208 212
208 213
208 214
208 215
208 228
208 233
208 243
208 246
208 249
209 212
209 213
209 214
209 215
209 226
209 234
209 247
210 216
210 217
210 248
211 249
212 213
212 216
212 217
212 218
212 219
212 220
212 221
212 222
212 223
212 250
213 214
213 215
213 216
213 217
213 218
213 219
213 220
213 221
213 233
213 234
213 239
213 242
213 251
214 216
214 218
214 219
214 220
214 221
214 222
214 240
214 241
214 252
215 217
215 218
215 219
215 220
215 221
215 222
215 223
215 237
215 238
215 253
216 229
216 249
217 224
217 249
218 234
218 242
219 234
219 239
220 233
220 242
221 233
221 239
222 242
222 251
223 239
223 251
224 225
224 229
224 233
224 234
224 235
224 236
224 237
224 238
224 239
224 248
224 250
224 251
224 253
224 265
224 277
224 278
225 233
225 234
225 235
225 236
225 237
225 238
225 239
225 250
225 251
225 253
225 264
225 265
226 227
226 228
226 232
226 233
226 234
226 236
226 239
226 242
226 247
226 250
226 251
226 252
226 253
226 263
226 276
227 233
227 234
227 239
227 242
227 244
227 245
227 250
227 251
227 252
227 253
227 254
227 255
227 262
227 274
228 233
228 234
228 239
228 242
228 243
228 246
228 250
228 251
228 252
228 253
228 254
228 255
228 262
228 275
229 230
229 231
229 232
229 233
229 234
229 240
229 241
229 242
229 248
229 250
229 251
229 252
229 254
229 256
229 261
229 277
229 278
230 231
230 232
230 233
230 234
230 240
230 241
230 242
230 250
230 251
230 252
230 254
230 256
230 260
230 261
231 232
231 233
231 234
231 240
231 241
231 242
231 250
231 251
231 252
231 254
231 256
231 258
231 260
231 270
232 233
232 234
232 240
232 241
232 242
232 250
232 251
232 252
232 254
232 255
232 256
232 258
232 261
232 269
233 234
233 235
233 236
233 237
233 238
233 239
233 240
233 241
233 242
233 250
233 251
233 252
233 253
233 254
233 255
233 256
233 257
233 258
233 262
233 263
233 268
233 271
233 280
234 235
234 236
234 237
234 238
234 239
234 240
234 241
234 242
234 250
234 251
234 252
234 253
234 254
234 255
234 256
234 257
234 258
234 262
234 263
234 268
234 271
234 280
235 236
235 237
235 238
235 239
235 250
235 251
235 253
235 254
235 255
235 257
235 259
235 264
235 267
236 237
236 238
236 239
236 250
236 251
236 253
236 254
236 255
236 256
236 257
236 259
236 265
236 266
237 238
237 239
237 250
237 251
237 253
237 255
237 257
237 259
237 265
237 266
237 282
238 239
238 250
238 251
238 253
238 255
238 257
238 259
238 264
238 267
238 282
239 242
239 250
239 251
239 253
239 254
239 255
239 256
239 257
239 258
239 259
239 268
239 279
239 280
239 282
240 241
240 242
240 250
240 251
240 252
240 254
240 256
240 258
240 261
240 269
240 281
241 242
241 250
241 251
241 252
241 254
241 256
241 258
241 260
241 270
241 281
242 250
242 251
242 252
242 253
242 254
242 255
242 256
242 257
242 258
242 259
242 271
242 279
242 280
242 281
243 246
243 272
243 275
243 278
244 245
244 273
244 274
244 278
245 273
245 274
245 278
246 272
246 275
246 278
247 276
248 277
249 278
250 251
250 254
250 255
250 256
250 257
250 258
250 259
250 279
251 252
251 253
251 254
251 255
251 256
251 257
251 262
251 263
251 268
251 271
251 280
252 254
252 255
252 256
252 257
252 258
252 269
252 270
252 281
253 254
253 255
253 256
253 257
253 258
253 259
253 266
253 267
253 282
254 263
254 271
255 263
255 268
256 262
256 271
257 262
257 268
258 271
258 280
259 268
259 280
260 261
260 262
260 263
260 269
260 270
260 271
260 281
260 283
260 289
261 262
261 263
261 269
261 270
261 271
261 281
261 283
261 288
262 263
262 264
262 265
262 266
262 267
262 268
262 269
262 270
262 271
262 279
262 280
262 281
262 282
262 283
262 287
262 290
262 297
263 264
263 265
263 266
263 267
263 268
263 269
263 270
263 271
263 279
263 280
263 281
263 282
263 283
263 287
263 290
263 297
264 265
264 266
264 267
264 268
264 282
264 284
264 286
265 266
265 267
265 268
265 282
265 284
265 285
266 267
266 268
266 282
266 284
266 285
266 299
267 268
267 282
267 284
267 286
267 299
268 271
268 279
268 282
268 283
268 284
268 287
268 296
268 297
268 299
269 270
269 271
269 281
269 283
269 288
269 298
270 271
270 281
270 283
270 289
270 298
271 279
271 281
271 282
271 283
271 284
271 290
271 296
271 297
271 298
272 275
272 291
272 294
272 295
273 274
273 292
273 293
273 295
274 292
274 293
274 295
275 291
275 294
275 295
278 295
279 283
279 284
279 296
280 297
281 283
281 288
281 289
281 298
282 283
282 284
282 285
282 286
282 299
283 290
283 297
284 287
284 297
285 286
285 287
285 299
286 287
286 299
287 290
287 296
287 299
288 289
288 290
288 298
289 290
289 298
290 296
290 298
291 294
292 293
